Route #1: 0 25 36 44 29 37 47 0
Route #2: 0 41 6 10 5 8 27 51 0
Route #3: 0 40 42 20 30 18 1 0
Route #4: 0 21 11 28 3 31 24 39 14 23 0
Route #5: 0 4 22 26 15 32 16 9 38 0
Route #6: 0 45 12 50 17 49 19 34 46 13 48 2 0
Route #7: 0 43 7 35 33 0
Cost 784:
